c *********************************
c * Circuit generated by BenCGen
c *
c * CarrySelectAdder_34_34_34_InOut_G4T
c *
c * Ports with 1 gate(s): 57
c * Ports with 2 gate(s): 453
c * Ports with 4 gate(s): 14
c * Total gates: 524
c *********************************
p cnf 592 1671
1 105 0
-1 -105 0
1 -104 0
105 -104 0
-1 -105 104 0
104 122 0
-104 -122 0
1 35 -108 0
-1 35 108 0
1 -35 108 0
-1 -35 -108 0
108 104 -69 0
-108 104 69 0
108 -104 69 0
-108 -104 -69 0
104 -109 0
108 -109 0
-104 -108 109 0
35 -110 0
1 -110 0
-35 -1 110 0
-109 107 0
-110 107 0
109 110 -107 0
2 36 -112 0
-2 36 112 0
2 -36 112 0
-2 -36 -112 0
112 107 -70 0
-112 107 70 0
112 -107 70 0
-112 -107 -70 0
107 -113 0
112 -113 0
-107 -112 113 0
36 -114 0
2 -114 0
-36 -2 114 0
-113 111 0
-114 111 0
113 114 -111 0
3 37 -116 0
-3 37 116 0
3 -37 116 0
-3 -37 -116 0
116 111 -71 0
-116 111 71 0
116 -111 71 0
-116 -111 -71 0
111 -117 0
116 -117 0
-111 -116 117 0
37 -118 0
3 -118 0
-37 -3 118 0
-117 115 0
-118 115 0
117 118 -115 0
4 38 -119 0
-4 38 119 0
4 -38 119 0
-4 -38 -119 0
119 115 -72 0
-119 115 72 0
119 -115 72 0
-119 -115 -72 0
115 -120 0
119 -120 0
-115 -119 120 0
38 -121 0
4 -121 0
-38 -4 121 0
-120 106 0
-121 106 0
120 121 -106 0
5 39 -133 0
-5 39 133 0
5 -39 133 0
-5 -39 -133 0
133 104 -123 0
-133 104 123 0
133 -104 123 0
-133 -104 -123 0
104 -134 0
133 -134 0
-104 -133 134 0
39 -135 0
5 -135 0
-39 -5 135 0
-134 132 0
-135 132 0
134 135 -132 0
6 40 -137 0
-6 40 137 0
6 -40 137 0
-6 -40 -137 0
137 132 -124 0
-137 132 124 0
137 -132 124 0
-137 -132 -124 0
132 -138 0
137 -138 0
-132 -137 138 0
40 -139 0
6 -139 0
-40 -6 139 0
-138 136 0
-139 136 0
138 139 -136 0
7 41 -141 0
-7 41 141 0
7 -41 141 0
-7 -41 -141 0
141 136 -125 0
-141 136 125 0
141 -136 125 0
-141 -136 -125 0
136 -142 0
141 -142 0
-136 -141 142 0
41 -143 0
7 -143 0
-41 -7 143 0
-142 140 0
-143 140 0
142 143 -140 0
8 42 -144 0
-8 42 144 0
8 -42 144 0
-8 -42 -144 0
144 140 -126 0
-144 140 126 0
144 -140 126 0
-144 -140 -126 0
140 -145 0
144 -145 0
-140 -144 145 0
42 -146 0
8 -146 0
-42 -8 146 0
-145 131 0
-146 131 0
145 146 -131 0
133 -147 0
137 -147 0
141 -147 0
144 -147 0
-133 -137 -141 -144 147 0
146 -148 0
-146 148 0
5 39 -151 0
-5 39 151 0
5 -39 151 0
-5 -39 -151 0
151 122 -127 0
-151 122 127 0
151 -122 127 0
-151 -122 -127 0
122 -152 0
151 -152 0
-122 -151 152 0
39 -153 0
5 -153 0
-39 -5 153 0
-152 150 0
-153 150 0
152 153 -150 0
6 40 -155 0
-6 40 155 0
6 -40 155 0
-6 -40 -155 0
155 150 -128 0
-155 150 128 0
155 -150 128 0
-155 -150 -128 0
150 -156 0
155 -156 0
-150 -155 156 0
40 -157 0
6 -157 0
-40 -6 157 0
-156 154 0
-157 154 0
156 157 -154 0
7 41 -159 0
-7 41 159 0
7 -41 159 0
-7 -41 -159 0
159 154 -129 0
-159 154 129 0
159 -154 129 0
-159 -154 -129 0
154 -160 0
159 -160 0
-154 -159 160 0
41 -161 0
7 -161 0
-41 -7 161 0
-160 158 0
-161 158 0
160 161 -158 0
8 42 -162 0
-8 42 162 0
8 -42 162 0
-8 -42 -162 0
162 158 -130 0
-162 158 130 0
162 -158 130 0
-162 -158 -130 0
158 -163 0
162 -163 0
-158 -162 163 0
42 -164 0
8 -164 0
-42 -8 164 0
-163 149 0
-164 149 0
163 164 -149 0
151 -165 0
155 -165 0
159 -165 0
162 -165 0
-151 -155 -159 -162 165 0
164 -166 0
-164 166 0
9 43 -195 0
-9 43 195 0
9 -43 195 0
-9 -43 -195 0
195 104 -185 0
-195 104 185 0
195 -104 185 0
-195 -104 -185 0
104 -196 0
195 -196 0
-104 -195 196 0
43 -197 0
9 -197 0
-43 -9 197 0
-196 194 0
-197 194 0
196 197 -194 0
10 44 -199 0
-10 44 199 0
10 -44 199 0
-10 -44 -199 0
199 194 -186 0
-199 194 186 0
199 -194 186 0
-199 -194 -186 0
194 -200 0
199 -200 0
-194 -199 200 0
44 -201 0
10 -201 0
-44 -10 201 0
-200 198 0
-201 198 0
200 201 -198 0
11 45 -203 0
-11 45 203 0
11 -45 203 0
-11 -45 -203 0
203 198 -187 0
-203 198 187 0
203 -198 187 0
-203 -198 -187 0
198 -204 0
203 -204 0
-198 -203 204 0
45 -205 0
11 -205 0
-45 -11 205 0
-204 202 0
-205 202 0
204 205 -202 0
12 46 -206 0
-12 46 206 0
12 -46 206 0
-12 -46 -206 0
206 202 -188 0
-206 202 188 0
206 -202 188 0
-206 -202 -188 0
202 -207 0
206 -207 0
-202 -206 207 0
46 -208 0
12 -208 0
-46 -12 208 0
-207 193 0
-208 193 0
207 208 -193 0
195 -209 0
199 -209 0
203 -209 0
206 -209 0
-195 -199 -203 -206 209 0
208 -210 0
-208 210 0
9 43 -213 0
-9 43 213 0
9 -43 213 0
-9 -43 -213 0
213 122 -189 0
-213 122 189 0
213 -122 189 0
-213 -122 -189 0
122 -214 0
213 -214 0
-122 -213 214 0
43 -215 0
9 -215 0
-43 -9 215 0
-214 212 0
-215 212 0
214 215 -212 0
10 44 -217 0
-10 44 217 0
10 -44 217 0
-10 -44 -217 0
217 212 -190 0
-217 212 190 0
217 -212 190 0
-217 -212 -190 0
212 -218 0
217 -218 0
-212 -217 218 0
44 -219 0
10 -219 0
-44 -10 219 0
-218 216 0
-219 216 0
218 219 -216 0
11 45 -221 0
-11 45 221 0
11 -45 221 0
-11 -45 -221 0
221 216 -191 0
-221 216 191 0
221 -216 191 0
-221 -216 -191 0
216 -222 0
221 -222 0
-216 -221 222 0
45 -223 0
11 -223 0
-45 -11 223 0
-222 220 0
-223 220 0
222 223 -220 0
12 46 -224 0
-12 46 224 0
12 -46 224 0
-12 -46 -224 0
224 220 -192 0
-224 220 192 0
224 -220 192 0
-224 -220 -192 0
220 -225 0
224 -225 0
-220 -224 225 0
46 -226 0
12 -226 0
-46 -12 226 0
-225 211 0
-226 211 0
225 226 -211 0
213 -227 0
217 -227 0
221 -227 0
224 -227 0
-213 -217 -221 -224 227 0
226 -228 0
-226 228 0
13 47 -257 0
-13 47 257 0
13 -47 257 0
-13 -47 -257 0
257 104 -247 0
-257 104 247 0
257 -104 247 0
-257 -104 -247 0
104 -258 0
257 -258 0
-104 -257 258 0
47 -259 0
13 -259 0
-47 -13 259 0
-258 256 0
-259 256 0
258 259 -256 0
14 48 -261 0
-14 48 261 0
14 -48 261 0
-14 -48 -261 0
261 256 -248 0
-261 256 248 0
261 -256 248 0
-261 -256 -248 0
256 -262 0
261 -262 0
-256 -261 262 0
48 -263 0
14 -263 0
-48 -14 263 0
-262 260 0
-263 260 0
262 263 -260 0
15 49 -265 0
-15 49 265 0
15 -49 265 0
-15 -49 -265 0
265 260 -249 0
-265 260 249 0
265 -260 249 0
-265 -260 -249 0
260 -266 0
265 -266 0
-260 -265 266 0
49 -267 0
15 -267 0
-49 -15 267 0
-266 264 0
-267 264 0
266 267 -264 0
16 50 -268 0
-16 50 268 0
16 -50 268 0
-16 -50 -268 0
268 264 -250 0
-268 264 250 0
268 -264 250 0
-268 -264 -250 0
264 -269 0
268 -269 0
-264 -268 269 0
50 -270 0
16 -270 0
-50 -16 270 0
-269 255 0
-270 255 0
269 270 -255 0
257 -271 0
261 -271 0
265 -271 0
268 -271 0
-257 -261 -265 -268 271 0
270 -272 0
-270 272 0
13 47 -275 0
-13 47 275 0
13 -47 275 0
-13 -47 -275 0
275 122 -251 0
-275 122 251 0
275 -122 251 0
-275 -122 -251 0
122 -276 0
275 -276 0
-122 -275 276 0
47 -277 0
13 -277 0
-47 -13 277 0
-276 274 0
-277 274 0
276 277 -274 0
14 48 -279 0
-14 48 279 0
14 -48 279 0
-14 -48 -279 0
279 274 -252 0
-279 274 252 0
279 -274 252 0
-279 -274 -252 0
274 -280 0
279 -280 0
-274 -279 280 0
48 -281 0
14 -281 0
-48 -14 281 0
-280 278 0
-281 278 0
280 281 -278 0
15 49 -283 0
-15 49 283 0
15 -49 283 0
-15 -49 -283 0
283 278 -253 0
-283 278 253 0
283 -278 253 0
-283 -278 -253 0
278 -284 0
283 -284 0
-278 -283 284 0
49 -285 0
15 -285 0
-49 -15 285 0
-284 282 0
-285 282 0
284 285 -282 0
16 50 -286 0
-16 50 286 0
16 -50 286 0
-16 -50 -286 0
286 282 -254 0
-286 282 254 0
286 -282 254 0
-286 -282 -254 0
282 -287 0
286 -287 0
-282 -286 287 0
50 -288 0
16 -288 0
-50 -16 288 0
-287 273 0
-288 273 0
287 288 -273 0
275 -289 0
279 -289 0
283 -289 0
286 -289 0
-275 -279 -283 -286 289 0
288 -290 0
-288 290 0
17 51 -319 0
-17 51 319 0
17 -51 319 0
-17 -51 -319 0
319 104 -309 0
-319 104 309 0
319 -104 309 0
-319 -104 -309 0
104 -320 0
319 -320 0
-104 -319 320 0
51 -321 0
17 -321 0
-51 -17 321 0
-320 318 0
-321 318 0
320 321 -318 0
18 52 -323 0
-18 52 323 0
18 -52 323 0
-18 -52 -323 0
323 318 -310 0
-323 318 310 0
323 -318 310 0
-323 -318 -310 0
318 -324 0
323 -324 0
-318 -323 324 0
52 -325 0
18 -325 0
-52 -18 325 0
-324 322 0
-325 322 0
324 325 -322 0
19 53 -327 0
-19 53 327 0
19 -53 327 0
-19 -53 -327 0
327 322 -311 0
-327 322 311 0
327 -322 311 0
-327 -322 -311 0
322 -328 0
327 -328 0
-322 -327 328 0
53 -329 0
19 -329 0
-53 -19 329 0
-328 326 0
-329 326 0
328 329 -326 0
20 54 -330 0
-20 54 330 0
20 -54 330 0
-20 -54 -330 0
330 326 -312 0
-330 326 312 0
330 -326 312 0
-330 -326 -312 0
326 -331 0
330 -331 0
-326 -330 331 0
54 -332 0
20 -332 0
-54 -20 332 0
-331 317 0
-332 317 0
331 332 -317 0
319 -333 0
323 -333 0
327 -333 0
330 -333 0
-319 -323 -327 -330 333 0
332 -334 0
-332 334 0
17 51 -337 0
-17 51 337 0
17 -51 337 0
-17 -51 -337 0
337 122 -313 0
-337 122 313 0
337 -122 313 0
-337 -122 -313 0
122 -338 0
337 -338 0
-122 -337 338 0
51 -339 0
17 -339 0
-51 -17 339 0
-338 336 0
-339 336 0
338 339 -336 0
18 52 -341 0
-18 52 341 0
18 -52 341 0
-18 -52 -341 0
341 336 -314 0
-341 336 314 0
341 -336 314 0
-341 -336 -314 0
336 -342 0
341 -342 0
-336 -341 342 0
52 -343 0
18 -343 0
-52 -18 343 0
-342 340 0
-343 340 0
342 343 -340 0
19 53 -345 0
-19 53 345 0
19 -53 345 0
-19 -53 -345 0
345 340 -315 0
-345 340 315 0
345 -340 315 0
-345 -340 -315 0
340 -346 0
345 -346 0
-340 -345 346 0
53 -347 0
19 -347 0
-53 -19 347 0
-346 344 0
-347 344 0
346 347 -344 0
20 54 -348 0
-20 54 348 0
20 -54 348 0
-20 -54 -348 0
348 344 -316 0
-348 344 316 0
348 -344 316 0
-348 -344 -316 0
344 -349 0
348 -349 0
-344 -348 349 0
54 -350 0
20 -350 0
-54 -20 350 0
-349 335 0
-350 335 0
349 350 -335 0
337 -351 0
341 -351 0
345 -351 0
348 -351 0
-337 -341 -345 -348 351 0
350 -352 0
-350 352 0
21 55 -381 0
-21 55 381 0
21 -55 381 0
-21 -55 -381 0
381 104 -371 0
-381 104 371 0
381 -104 371 0
-381 -104 -371 0
104 -382 0
381 -382 0
-104 -381 382 0
55 -383 0
21 -383 0
-55 -21 383 0
-382 380 0
-383 380 0
382 383 -380 0
22 56 -385 0
-22 56 385 0
22 -56 385 0
-22 -56 -385 0
385 380 -372 0
-385 380 372 0
385 -380 372 0
-385 -380 -372 0
380 -386 0
385 -386 0
-380 -385 386 0
56 -387 0
22 -387 0
-56 -22 387 0
-386 384 0
-387 384 0
386 387 -384 0
23 57 -389 0
-23 57 389 0
23 -57 389 0
-23 -57 -389 0
389 384 -373 0
-389 384 373 0
389 -384 373 0
-389 -384 -373 0
384 -390 0
389 -390 0
-384 -389 390 0
57 -391 0
23 -391 0
-57 -23 391 0
-390 388 0
-391 388 0
390 391 -388 0
24 58 -392 0
-24 58 392 0
24 -58 392 0
-24 -58 -392 0
392 388 -374 0
-392 388 374 0
392 -388 374 0
-392 -388 -374 0
388 -393 0
392 -393 0
-388 -392 393 0
58 -394 0
24 -394 0
-58 -24 394 0
-393 379 0
-394 379 0
393 394 -379 0
381 -395 0
385 -395 0
389 -395 0
392 -395 0
-381 -385 -389 -392 395 0
394 -396 0
-394 396 0
21 55 -399 0
-21 55 399 0
21 -55 399 0
-21 -55 -399 0
399 122 -375 0
-399 122 375 0
399 -122 375 0
-399 -122 -375 0
122 -400 0
399 -400 0
-122 -399 400 0
55 -401 0
21 -401 0
-55 -21 401 0
-400 398 0
-401 398 0
400 401 -398 0
22 56 -403 0
-22 56 403 0
22 -56 403 0
-22 -56 -403 0
403 398 -376 0
-403 398 376 0
403 -398 376 0
-403 -398 -376 0
398 -404 0
403 -404 0
-398 -403 404 0
56 -405 0
22 -405 0
-56 -22 405 0
-404 402 0
-405 402 0
404 405 -402 0
23 57 -407 0
-23 57 407 0
23 -57 407 0
-23 -57 -407 0
407 402 -377 0
-407 402 377 0
407 -402 377 0
-407 -402 -377 0
402 -408 0
407 -408 0
-402 -407 408 0
57 -409 0
23 -409 0
-57 -23 409 0
-408 406 0
-409 406 0
408 409 -406 0
24 58 -410 0
-24 58 410 0
24 -58 410 0
-24 -58 -410 0
410 406 -378 0
-410 406 378 0
410 -406 378 0
-410 -406 -378 0
406 -411 0
410 -411 0
-406 -410 411 0
58 -412 0
24 -412 0
-58 -24 412 0
-411 397 0
-412 397 0
411 412 -397 0
399 -413 0
403 -413 0
407 -413 0
410 -413 0
-399 -403 -407 -410 413 0
412 -414 0
-412 414 0
25 59 -443 0
-25 59 443 0
25 -59 443 0
-25 -59 -443 0
443 104 -433 0
-443 104 433 0
443 -104 433 0
-443 -104 -433 0
104 -444 0
443 -444 0
-104 -443 444 0
59 -445 0
25 -445 0
-59 -25 445 0
-444 442 0
-445 442 0
444 445 -442 0
26 60 -447 0
-26 60 447 0
26 -60 447 0
-26 -60 -447 0
447 442 -434 0
-447 442 434 0
447 -442 434 0
-447 -442 -434 0
442 -448 0
447 -448 0
-442 -447 448 0
60 -449 0
26 -449 0
-60 -26 449 0
-448 446 0
-449 446 0
448 449 -446 0
27 61 -451 0
-27 61 451 0
27 -61 451 0
-27 -61 -451 0
451 446 -435 0
-451 446 435 0
451 -446 435 0
-451 -446 -435 0
446 -452 0
451 -452 0
-446 -451 452 0
61 -453 0
27 -453 0
-61 -27 453 0
-452 450 0
-453 450 0
452 453 -450 0
28 62 -454 0
-28 62 454 0
28 -62 454 0
-28 -62 -454 0
454 450 -436 0
-454 450 436 0
454 -450 436 0
-454 -450 -436 0
450 -455 0
454 -455 0
-450 -454 455 0
62 -456 0
28 -456 0
-62 -28 456 0
-455 441 0
-456 441 0
455 456 -441 0
443 -457 0
447 -457 0
451 -457 0
454 -457 0
-443 -447 -451 -454 457 0
456 -458 0
-456 458 0
25 59 -461 0
-25 59 461 0
25 -59 461 0
-25 -59 -461 0
461 122 -437 0
-461 122 437 0
461 -122 437 0
-461 -122 -437 0
122 -462 0
461 -462 0
-122 -461 462 0
59 -463 0
25 -463 0
-59 -25 463 0
-462 460 0
-463 460 0
462 463 -460 0
26 60 -465 0
-26 60 465 0
26 -60 465 0
-26 -60 -465 0
465 460 -438 0
-465 460 438 0
465 -460 438 0
-465 -460 -438 0
460 -466 0
465 -466 0
-460 -465 466 0
60 -467 0
26 -467 0
-60 -26 467 0
-466 464 0
-467 464 0
466 467 -464 0
27 61 -469 0
-27 61 469 0
27 -61 469 0
-27 -61 -469 0
469 464 -439 0
-469 464 439 0
469 -464 439 0
-469 -464 -439 0
464 -470 0
469 -470 0
-464 -469 470 0
61 -471 0
27 -471 0
-61 -27 471 0
-470 468 0
-471 468 0
470 471 -468 0
28 62 -472 0
-28 62 472 0
28 -62 472 0
-28 -62 -472 0
472 468 -440 0
-472 468 440 0
472 -468 440 0
-472 -468 -440 0
468 -473 0
472 -473 0
-468 -472 473 0
62 -474 0
28 -474 0
-62 -28 474 0
-473 459 0
-474 459 0
473 474 -459 0
461 -475 0
465 -475 0
469 -475 0
472 -475 0
-461 -465 -469 -472 475 0
474 -476 0
-474 476 0
29 63 -505 0
-29 63 505 0
29 -63 505 0
-29 -63 -505 0
505 104 -495 0
-505 104 495 0
505 -104 495 0
-505 -104 -495 0
104 -506 0
505 -506 0
-104 -505 506 0
63 -507 0
29 -507 0
-63 -29 507 0
-506 504 0
-507 504 0
506 507 -504 0
30 64 -509 0
-30 64 509 0
30 -64 509 0
-30 -64 -509 0
509 504 -496 0
-509 504 496 0
509 -504 496 0
-509 -504 -496 0
504 -510 0
509 -510 0
-504 -509 510 0
64 -511 0
30 -511 0
-64 -30 511 0
-510 508 0
-511 508 0
510 511 -508 0
31 65 -513 0
-31 65 513 0
31 -65 513 0
-31 -65 -513 0
513 508 -497 0
-513 508 497 0
513 -508 497 0
-513 -508 -497 0
508 -514 0
513 -514 0
-508 -513 514 0
65 -515 0
31 -515 0
-65 -31 515 0
-514 512 0
-515 512 0
514 515 -512 0
32 66 -516 0
-32 66 516 0
32 -66 516 0
-32 -66 -516 0
516 512 -498 0
-516 512 498 0
516 -512 498 0
-516 -512 -498 0
512 -517 0
516 -517 0
-512 -516 517 0
66 -518 0
32 -518 0
-66 -32 518 0
-517 503 0
-518 503 0
517 518 -503 0
505 -519 0
509 -519 0
513 -519 0
516 -519 0
-505 -509 -513 -516 519 0
518 -520 0
-518 520 0
29 63 -523 0
-29 63 523 0
29 -63 523 0
-29 -63 -523 0
523 122 -499 0
-523 122 499 0
523 -122 499 0
-523 -122 -499 0
122 -524 0
523 -524 0
-122 -523 524 0
63 -525 0
29 -525 0
-63 -29 525 0
-524 522 0
-525 522 0
524 525 -522 0
30 64 -527 0
-30 64 527 0
30 -64 527 0
-30 -64 -527 0
527 522 -500 0
-527 522 500 0
527 -522 500 0
-527 -522 -500 0
522 -528 0
527 -528 0
-522 -527 528 0
64 -529 0
30 -529 0
-64 -30 529 0
-528 526 0
-529 526 0
528 529 -526 0
31 65 -531 0
-31 65 531 0
31 -65 531 0
-31 -65 -531 0
531 526 -501 0
-531 526 501 0
531 -526 501 0
-531 -526 -501 0
526 -532 0
531 -532 0
-526 -531 532 0
65 -533 0
31 -533 0
-65 -31 533 0
-532 530 0
-533 530 0
532 533 -530 0
32 66 -534 0
-32 66 534 0
32 -66 534 0
-32 -66 -534 0
534 530 -502 0
-534 530 502 0
534 -530 502 0
-534 -530 -502 0
530 -535 0
534 -535 0
-530 -534 535 0
66 -536 0
32 -536 0
-66 -32 536 0
-535 521 0
-536 521 0
535 536 -521 0
523 -537 0
527 -537 0
531 -537 0
534 -537 0
-523 -527 -531 -534 537 0
536 -538 0
-536 538 0
33 67 -563 0
-33 67 563 0
33 -67 563 0
-33 -67 -563 0
563 104 -557 0
-563 104 557 0
563 -104 557 0
-563 -104 -557 0
104 -564 0
563 -564 0
-104 -563 564 0
67 -565 0
33 -565 0
-67 -33 565 0
-564 562 0
-565 562 0
564 565 -562 0
34 68 -566 0
-34 68 566 0
34 -68 566 0
-34 -68 -566 0
566 562 -558 0
-566 562 558 0
566 -562 558 0
-566 -562 -558 0
562 -567 0
566 -567 0
-562 -566 567 0
68 -568 0
34 -568 0
-68 -34 568 0
-567 561 0
-568 561 0
567 568 -561 0
563 -569 0
566 -569 0
-563 -566 569 0
568 -570 0
-568 570 0
33 67 -573 0
-33 67 573 0
33 -67 573 0
-33 -67 -573 0
573 122 -559 0
-573 122 559 0
573 -122 559 0
-573 -122 -559 0
122 -574 0
573 -574 0
-122 -573 574 0
67 -575 0
33 -575 0
-67 -33 575 0
-574 572 0
-575 572 0
574 575 -572 0
34 68 -576 0
-34 68 576 0
34 -68 576 0
-34 -68 -576 0
576 572 -560 0
-576 572 560 0
576 -572 560 0
-576 -572 -560 0
572 -577 0
576 -577 0
-572 -576 577 0
68 -578 0
34 -578 0
-68 -34 578 0
-577 571 0
-578 571 0
577 578 -571 0
573 -579 0
576 -579 0
-573 -576 579 0
578 -580 0
-578 580 0
106 168 0
-106 -168 0
168 -169 0
123 -169 0
-168 -123 169 0
106 -170 0
127 -170 0
-106 -127 170 0
-169 73 0
-170 73 0
169 170 -73 0
106 171 0
-106 -171 0
171 -172 0
124 -172 0
-171 -124 172 0
106 -173 0
128 -173 0
-106 -128 173 0
-172 74 0
-173 74 0
172 173 -74 0
106 174 0
-106 -174 0
174 -175 0
125 -175 0
-174 -125 175 0
106 -176 0
129 -176 0
-106 -129 176 0
-175 75 0
-176 75 0
175 176 -75 0
106 177 0
-106 -177 0
177 -178 0
126 -178 0
-177 -126 178 0
106 -179 0
130 -179 0
-106 -130 179 0
-178 76 0
-179 76 0
178 179 -76 0
106 180 0
-106 -180 0
180 -181 0
131 -181 0
-180 -131 181 0
106 -182 0
149 -182 0
-106 -149 182 0
-181 167 0
-182 167 0
181 182 -167 0
106 -183 0
165 -183 0
-106 -165 183 0
-183 184 0
-167 184 0
183 167 -184 0
184 230 0
-184 -230 0
230 -231 0
185 -231 0
-230 -185 231 0
184 -232 0
189 -232 0
-184 -189 232 0
-231 77 0
-232 77 0
231 232 -77 0
184 233 0
-184 -233 0
233 -234 0
186 -234 0
-233 -186 234 0
184 -235 0
190 -235 0
-184 -190 235 0
-234 78 0
-235 78 0
234 235 -78 0
184 236 0
-184 -236 0
236 -237 0
187 -237 0
-236 -187 237 0
184 -238 0
191 -238 0
-184 -191 238 0
-237 79 0
-238 79 0
237 238 -79 0
184 239 0
-184 -239 0
239 -240 0
188 -240 0
-239 -188 240 0
184 -241 0
192 -241 0
-184 -192 241 0
-240 80 0
-241 80 0
240 241 -80 0
184 242 0
-184 -242 0
242 -243 0
193 -243 0
-242 -193 243 0
184 -244 0
211 -244 0
-184 -211 244 0
-243 229 0
-244 229 0
243 244 -229 0
184 -245 0
227 -245 0
-184 -227 245 0
-245 246 0
-229 246 0
245 229 -246 0
246 292 0
-246 -292 0
292 -293 0
247 -293 0
-292 -247 293 0
246 -294 0
251 -294 0
-246 -251 294 0
-293 81 0
-294 81 0
293 294 -81 0
246 295 0
-246 -295 0
295 -296 0
248 -296 0
-295 -248 296 0
246 -297 0
252 -297 0
-246 -252 297 0
-296 82 0
-297 82 0
296 297 -82 0
246 298 0
-246 -298 0
298 -299 0
249 -299 0
-298 -249 299 0
246 -300 0
253 -300 0
-246 -253 300 0
-299 83 0
-300 83 0
299 300 -83 0
246 301 0
-246 -301 0
301 -302 0
250 -302 0
-301 -250 302 0
246 -303 0
254 -303 0
-246 -254 303 0
-302 84 0
-303 84 0
302 303 -84 0
246 304 0
-246 -304 0
304 -305 0
255 -305 0
-304 -255 305 0
246 -306 0
273 -306 0
-246 -273 306 0
-305 291 0
-306 291 0
305 306 -291 0
246 -307 0
289 -307 0
-246 -289 307 0
-307 308 0
-291 308 0
307 291 -308 0
308 354 0
-308 -354 0
354 -355 0
309 -355 0
-354 -309 355 0
308 -356 0
313 -356 0
-308 -313 356 0
-355 85 0
-356 85 0
355 356 -85 0
308 357 0
-308 -357 0
357 -358 0
310 -358 0
-357 -310 358 0
308 -359 0
314 -359 0
-308 -314 359 0
-358 86 0
-359 86 0
358 359 -86 0
308 360 0
-308 -360 0
360 -361 0
311 -361 0
-360 -311 361 0
308 -362 0
315 -362 0
-308 -315 362 0
-361 87 0
-362 87 0
361 362 -87 0
308 363 0
-308 -363 0
363 -364 0
312 -364 0
-363 -312 364 0
308 -365 0
316 -365 0
-308 -316 365 0
-364 88 0
-365 88 0
364 365 -88 0
308 366 0
-308 -366 0
366 -367 0
317 -367 0
-366 -317 367 0
308 -368 0
335 -368 0
-308 -335 368 0
-367 353 0
-368 353 0
367 368 -353 0
308 -369 0
351 -369 0
-308 -351 369 0
-369 370 0
-353 370 0
369 353 -370 0
370 416 0
-370 -416 0
416 -417 0
371 -417 0
-416 -371 417 0
370 -418 0
375 -418 0
-370 -375 418 0
-417 89 0
-418 89 0
417 418 -89 0
370 419 0
-370 -419 0
419 -420 0
372 -420 0
-419 -372 420 0
370 -421 0
376 -421 0
-370 -376 421 0
-420 90 0
-421 90 0
420 421 -90 0
370 422 0
-370 -422 0
422 -423 0
373 -423 0
-422 -373 423 0
370 -424 0
377 -424 0
-370 -377 424 0
-423 91 0
-424 91 0
423 424 -91 0
370 425 0
-370 -425 0
425 -426 0
374 -426 0
-425 -374 426 0
370 -427 0
378 -427 0
-370 -378 427 0
-426 92 0
-427 92 0
426 427 -92 0
370 428 0
-370 -428 0
428 -429 0
379 -429 0
-428 -379 429 0
370 -430 0
397 -430 0
-370 -397 430 0
-429 415 0
-430 415 0
429 430 -415 0
370 -431 0
413 -431 0
-370 -413 431 0
-431 432 0
-415 432 0
431 415 -432 0
432 478 0
-432 -478 0
478 -479 0
433 -479 0
-478 -433 479 0
432 -480 0
437 -480 0
-432 -437 480 0
-479 93 0
-480 93 0
479 480 -93 0
432 481 0
-432 -481 0
481 -482 0
434 -482 0
-481 -434 482 0
432 -483 0
438 -483 0
-432 -438 483 0
-482 94 0
-483 94 0
482 483 -94 0
432 484 0
-432 -484 0
484 -485 0
435 -485 0
-484 -435 485 0
432 -486 0
439 -486 0
-432 -439 486 0
-485 95 0
-486 95 0
485 486 -95 0
432 487 0
-432 -487 0
487 -488 0
436 -488 0
-487 -436 488 0
432 -489 0
440 -489 0
-432 -440 489 0
-488 96 0
-489 96 0
488 489 -96 0
432 490 0
-432 -490 0
490 -491 0
441 -491 0
-490 -441 491 0
432 -492 0
459 -492 0
-432 -459 492 0
-491 477 0
-492 477 0
491 492 -477 0
432 -493 0
475 -493 0
-432 -475 493 0
-493 494 0
-477 494 0
493 477 -494 0
494 540 0
-494 -540 0
540 -541 0
495 -541 0
-540 -495 541 0
494 -542 0
499 -542 0
-494 -499 542 0
-541 97 0
-542 97 0
541 542 -97 0
494 543 0
-494 -543 0
543 -544 0
496 -544 0
-543 -496 544 0
494 -545 0
500 -545 0
-494 -500 545 0
-544 98 0
-545 98 0
544 545 -98 0
494 546 0
-494 -546 0
546 -547 0
497 -547 0
-546 -497 547 0
494 -548 0
501 -548 0
-494 -501 548 0
-547 99 0
-548 99 0
547 548 -99 0
494 549 0
-494 -549 0
549 -550 0
498 -550 0
-549 -498 550 0
494 -551 0
502 -551 0
-494 -502 551 0
-550 100 0
-551 100 0
550 551 -100 0
494 552 0
-494 -552 0
552 -553 0
503 -553 0
-552 -503 553 0
494 -554 0
521 -554 0
-494 -521 554 0
-553 539 0
-554 539 0
553 554 -539 0
494 -555 0
537 -555 0
-494 -537 555 0
-555 556 0
-539 556 0
555 539 -556 0
556 582 0
-556 -582 0
582 -583 0
557 -583 0
-582 -557 583 0
556 -584 0
559 -584 0
-556 -559 584 0
-583 101 0
-584 101 0
583 584 -101 0
556 585 0
-556 -585 0
585 -586 0
558 -586 0
-585 -558 586 0
556 -587 0
560 -587 0
-556 -560 587 0
-586 102 0
-587 102 0
586 587 -102 0
556 588 0
-556 -588 0
588 -589 0
561 -589 0
-588 -561 589 0
556 -590 0
571 -590 0
-556 -571 590 0
-589 581 0
-590 581 0
589 590 -581 0
556 -591 0
579 -591 0
-556 -579 591 0
-591 592 0
-581 592 0
591 581 -592 0
592 -103 0
-592 103 0
